50
120
99
98
97
95
94
93
93
93
92
91
91
89
86
85
81
77
74
70
69
68
67
66
66
65
63
62
61
60
59
58
57
57
56
56
52
50
49
48
47
43
43
43
40
39
37
36
36
35
30
30
